output/regeneration_ilp.mps
NAME regeneration_srl_ilp
* Max problem is converted into Min one
ROWS
 N  OBJ
 L  constraint1_7490
 L  constraint1_411
 L  constraint1_412
 L  constraint1_410
 L  constraint1_414
 L  constraint1_3730
 L  constraint1_5400
 L  constraint2_7490
 L  constraint2_7491
 L  constraint2_7492
 L  constraint2_7493
 L  constraint2_410
 L  constraint2_411
 L  constraint2_412
 L  constraint2_413
 L  constraint2_3730
 L  constraint2_3731
 L  constraint2_3732
 L  constraint2_3733
 L  constraint2_5400
 L  constraint2_5401
 L  constraint2_5402
 L  constraint2_5403
COLUMNS
    MARKER    'MARKER'                 'INTORG'
    Z_749_0_0  OBJ       -2.9967492946440414e-04
    Z_749_0_0  constraint1_7490  1
    Z_749_0_0  constraint2_7490  1
    Z_749_0_1  OBJ       -2.5085268907486138e-03
    Z_749_0_1  constraint1_7490  1
    Z_749_0_1  constraint2_7491  1
    Z_749_0_2  OBJ       -7.4912665381775179e-01
    Z_749_0_2  constraint1_7490  1
    Z_749_0_2  constraint2_7492  1
    Z_749_0_3  OBJ       -9.5723317213326580e-04
    Z_749_0_3  constraint1_7490  1
    Z_749_0_3  constraint2_7493  1
    Z_749_0_4  OBJ       -1.4710791118990210e-01
    Z_749_0_4  constraint1_7490  1
    Z_41_1_0  OBJ       -3.1725140966949267e-04
    Z_41_1_0  constraint1_411  1
    Z_41_1_0  constraint2_410  1
    Z_41_1_1  OBJ       -1.1404165970532992e-03
    Z_41_1_1  constraint1_411  1
    Z_41_1_1  constraint2_411  1
    Z_41_1_2  OBJ       -5.5733473181952720e-01
    Z_41_1_2  constraint1_411  1
    Z_41_1_2  constraint2_412  1
    Z_41_1_3  OBJ       -3.5451734398970759e-04
    Z_41_1_3  constraint1_411  1
    Z_41_1_3  constraint2_413  1
    Z_41_1_4  OBJ       -3.4085308282976029e-01
    Z_41_1_4  constraint1_411  1
    Z_41_2_0  OBJ       -2.9398948725434380e-02
    Z_41_2_0  constraint1_412  1
    Z_41_2_0  constraint2_410  1
    Z_41_2_1  OBJ       -2.3498394984687660e-02
    Z_41_2_1  constraint1_412  1
    Z_41_2_1  constraint2_411  1
    Z_41_2_2  OBJ       -7.1904759101849056e-02
    Z_41_2_2  constraint1_412  1
    Z_41_2_2  constraint2_412  1
    Z_41_2_3  OBJ       -1.1239196642771189e-02
    Z_41_2_3  constraint1_412  1
    Z_41_2_3  constraint2_413  1
    Z_41_2_4  OBJ       -7.6395870054525772e-01
    Z_41_2_4  constraint1_412  1
    Z_41_0_0  OBJ       -3.1725140966949267e-04
    Z_41_0_0  constraint1_410  1
    Z_41_0_0  constraint2_410  1
    Z_41_0_1  OBJ       -1.1404165970532992e-03
    Z_41_0_1  constraint1_410  1
    Z_41_0_1  constraint2_411  1
    Z_41_0_2  OBJ       -5.5733473181952720e-01
    Z_41_0_2  constraint1_410  1
    Z_41_0_2  constraint2_412  1
    Z_41_0_3  OBJ       -3.5451734398970759e-04
    Z_41_0_3  constraint1_410  1
    Z_41_0_3  constraint2_413  1
    Z_41_0_4  OBJ       -3.4085308282976029e-01
    Z_41_0_4  constraint1_410  1
    Z_41_4_0  OBJ       -3.0485701872610529e-02
    Z_41_4_0  constraint1_414  1
    Z_41_4_0  constraint2_410  1
    Z_41_4_1  OBJ       -1.3383927081703896e-02
    Z_41_4_1  constraint1_414  1
    Z_41_4_1  constraint2_411  1
    Z_41_4_2  OBJ       -3.0220312984978497e-02
    Z_41_4_2  constraint1_414  1
    Z_41_4_2  constraint2_412  1
    Z_41_4_3  OBJ       -2.3889614010780993e-03
    Z_41_4_3  constraint1_414  1
    Z_41_4_3  constraint2_413  1
    Z_41_4_4  OBJ       -8.2352109665962914e-01
    Z_41_4_4  constraint1_414  1
    Z_373_0_0  OBJ       -1.8513145617093183e-03
    Z_373_0_0  constraint1_3730  1
    Z_373_0_0  constraint2_3730  1
    Z_373_0_1  OBJ       -9.7082185409152891e-04
    Z_373_0_1  constraint1_3730  1
    Z_373_0_1  constraint2_3731  1
    Z_373_0_2  OBJ       -7.3043091831512463e-01
    Z_373_0_2  constraint1_3730  1
    Z_373_0_2  constraint2_3732  1
    Z_373_0_3  OBJ       -1.0059267210174281e-02
    Z_373_0_3  constraint1_3730  1
    Z_373_0_3  constraint2_3733  1
    Z_373_0_4  OBJ       -1.5668767805890033e-01
    Z_373_0_4  constraint1_3730  1
    Z_540_0_0  OBJ       -1.5473608376602290e-03
    Z_540_0_0  constraint1_5400  1
    Z_540_0_0  constraint2_5400  1
    Z_540_0_1  OBJ       -6.4543630271533760e-04
    Z_540_0_1  constraint1_5400  1
    Z_540_0_1  constraint2_5401  1
    Z_540_0_2  OBJ       -7.3058771590542670e-01
    Z_540_0_2  constraint1_5400  1
    Z_540_0_2  constraint2_5402  1
    Z_540_0_3  OBJ       -4.8784892722656828e-03
    Z_540_0_3  constraint1_5400  1
    Z_540_0_3  constraint2_5403  1
    Z_540_0_4  OBJ       -1.6234099768193208e-01
    Z_540_0_4  constraint1_5400  1
    MARKER    'MARKER'                 'INTEND'
RHS
    RHS1      constraint1_7490  1
    RHS1      constraint1_411  1
    RHS1      constraint1_412  1
    RHS1      constraint1_410  1
    RHS1      constraint1_414  1
    RHS1      constraint1_3730  1
    RHS1      constraint1_5400  1
    RHS1      constraint2_7490  1
    RHS1      constraint2_7491  1
    RHS1      constraint2_7492  1
    RHS1      constraint2_7493  1
    RHS1      constraint2_410  1
    RHS1      constraint2_411  1
    RHS1      constraint2_412  1
    RHS1      constraint2_413  1
    RHS1      constraint2_3730  1
    RHS1      constraint2_3731  1
    RHS1      constraint2_3732  1
    RHS1      constraint2_3733  1
    RHS1      constraint2_5400  1
    RHS1      constraint2_5401  1
    RHS1      constraint2_5402  1
    RHS1      constraint2_5403  1
BOUNDS
 UP BND1      Z_749_0_0  1
 UP BND1      Z_749_0_1  1
 UP BND1      Z_749_0_2  1
 UP BND1      Z_749_0_3  1
 UP BND1      Z_749_0_4  1
 UP BND1      Z_41_1_0  1
 UP BND1      Z_41_1_1  1
 UP BND1      Z_41_1_2  1
 UP BND1      Z_41_1_3  1
 UP BND1      Z_41_1_4  1
 UP BND1      Z_41_2_0  1
 UP BND1      Z_41_2_1  1
 UP BND1      Z_41_2_2  1
 UP BND1      Z_41_2_3  1
 UP BND1      Z_41_2_4  1
 UP BND1      Z_41_0_0  1
 UP BND1      Z_41_0_1  1
 UP BND1      Z_41_0_2  1
 UP BND1      Z_41_0_3  1
 UP BND1      Z_41_0_4  1
 UP BND1      Z_41_4_0  1
 UP BND1      Z_41_4_1  1
 UP BND1      Z_41_4_2  1
 UP BND1      Z_41_4_3  1
 UP BND1      Z_41_4_4  1
 UP BND1      Z_373_0_0  1
 UP BND1      Z_373_0_1  1
 UP BND1      Z_373_0_2  1
 UP BND1      Z_373_0_3  1
 UP BND1      Z_373_0_4  1
 UP BND1      Z_540_0_0  1
 UP BND1      Z_540_0_1  1
 UP BND1      Z_540_0_2  1
 UP BND1      Z_540_0_3  1
 UP BND1      Z_540_0_4  1
QUADOBJ
    Z_373_0_0  Z_540_0_0  -1.9999999999999996e-01
    Z_373_0_1  Z_540_0_1  -1.9999999999999996e-01
    Z_373_0_2  Z_540_0_2  -1.9999999999999996e-01
    Z_373_0_3  Z_540_0_3  -1.9999999999999996e-01
ENDATA
