output/regeneration_ilp.sol
# Solution for model regeneration_srl_ilp
# Objective value = 4.8958128998924773e+00
Z_749_0_0 0
Z_749_0_1 0
Z_749_0_2 1
Z_749_0_3 0
Z_749_0_4 0
Z_41_1_0 0
Z_41_1_1 0
Z_41_1_2 0
Z_41_1_3 0
Z_41_1_4 1
Z_41_2_0 0
Z_41_2_1 0
Z_41_2_2 0
Z_41_2_3 0
Z_41_2_4 1
Z_41_0_0 0
Z_41_0_1 0
Z_41_0_2 1
Z_41_0_3 0
Z_41_0_4 0
Z_41_4_0 0
Z_41_4_1 0
Z_41_4_2 0
Z_41_4_3 0
Z_41_4_4 1
Z_373_0_0 0
Z_373_0_1 0
Z_373_0_2 1
Z_373_0_3 0
Z_373_0_4 0
Z_540_0_0 0
Z_540_0_1 0
Z_540_0_2 1
Z_540_0_3 0
Z_540_0_4 0
